sat
(model 
  (define-fun A () Bool
    false)
  (define-fun D () Bool
    false)
  (define-fun x6 () Bool
    false)
  (define-fun x7 () Bool
    false)
  (define-fun E () Bool
    false)
  (define-fun x8 () Bool
    false)
  (define-fun x3 () Bool
    false)
  (define-fun x2 () Bool
    false)
  (define-fun B () Bool
    false)
  (define-fun x1 () Bool
    false)
  (define-fun x4 () Bool
    false)
  (define-fun C () Bool
    false)
  (define-fun x5 () Bool
    false)
)
